n=8;
hearts=29;
clubs=15;
spades=45;
diamonds=10;
blocked=15;
m=array2d(1..n, 1..n,[
	_,_,_,_,_,_,_,_,
	5,_,_,_,4,5,_,_,
	5,_,_,3,5,_,_,2,
	_,5,_,5,4,_,5,4,
	_,_,_,_,3,2,_,_,
	_,5,2,_,5,_,_,_,
	2,5,5,_,1,5,4,5,
	5,_,_,5,4,3,_,_
]);
